NAME: sphere_reg_nol_10x1
COMMENT: type = sphere, neigh_ang = 0.0872664625997, neigh_size = 10
COMMENT: sphere_limit = 1.0471975512, rect_limit = [-1.0471975512, 0.785398163397, -0.785398163397, 1.57079632679]
TYPE: GTSP
DIMENSION: 10
GTSP_SETS: 10
EDGE_WEIGHT_TYPE: GEOM
NODE_COORD_SECTION:
1 -68.753882025 64.1580672368
2 153.738353925 44.4270040008
3 16.2305898749 30.0
4 -121.277174175 17.4576031237
5 101.215061775 5.73917047727
6 -36.2927022752 -5.73917047727
7 -173.800466325 -17.4576031237
8 48.6917696247 -30.0
9 -88.8159944253 -44.4270040008
10 133.676241525 -64.1580672368
GTSP_SET_SECTION:
1 1 -1
2 2 -1
3 3 -1
4 4 -1
5 5 -1
6 6 -1
7 7 -1
8 8 -1
9 9 -1
10 10 -1
EOF
